certificates/rado_a9_c11_N25.drat
-23 -25 0
d -23 -1 -25 0
7 9 23 0
-3 17 0
9 -24 23 0
-9 -25 0
3 -25 0
-25 0
-3 0
1 0
19 0
9 0
-11 0
-7 0
-21 0
-17 0
-2 0
4 0
23 0
14 0
5 0
18 0
10 0
24 0
-6 0
-16 0
-12 0
-20 0
-8 0
-22 0
13 0
0
